Problem:    4
Rows:       1
Columns:    50 (50 integer, 50 binary)
Non-zeros:  50
Status:     INTEGER OPTIMAL
Objective:  costo = 0 (MINimum)

   No.   Row name        Activity     Lower bound   Upper bound
------ ------------    ------------- ------------- -------------
     1 costo                       0                             

   No. Column name       Activity     Lower bound   Upper bound
------ ------------    ------------- ------------- -------------
     1 x[1,1]       *              0             0             1 
     2 x[1,2]       *              0             0             1 
     3 x[1,3]       *              0             0             1 
     4 x[1,4]       *              0             0             1 
     5 x[1,5]       *              0             0             1 
     6 x[1,6]       *              0             0             1 
     7 x[1,7]       *              0             0             1 
     8 x[1,8]       *              0             0             1 
     9 x[1,9]       *              0             0             1 
    10 x[1,10]      *              0             0             1 
    11 x[2,1]       *              0             0             1 
    12 x[2,2]       *              0             0             1 
    13 x[2,3]       *              0             0             1 
    14 x[2,4]       *              0             0             1 
    15 x[2,5]       *              0             0             1 
    16 x[2,6]       *              0             0             1 
    17 x[2,7]       *              0             0             1 
    18 x[2,8]       *              0             0             1 
    19 x[2,9]       *              0             0             1 
    20 x[2,10]      *              0             0             1 
    21 x[3,1]       *              0             0             1 
    22 x[3,2]       *              0             0             1 
    23 x[3,3]       *              0             0             1 
    24 x[3,4]       *              0             0             1 
    25 x[3,5]       *              0             0             1 
    26 x[3,6]       *              0             0             1 
    27 x[3,7]       *              0             0             1 
    28 x[3,8]       *              0             0             1 
    29 x[3,9]       *              0             0             1 
    30 x[3,10]      *              0             0             1 
    31 x[4,1]       *              0             0             1 
    32 x[4,2]       *              0             0             1 
    33 x[4,3]       *              0             0             1 
    34 x[4,4]       *              0             0             1 
    35 x[4,5]       *              0             0             1 
    36 x[4,6]       *              0             0             1 
    37 x[4,7]       *              0             0             1 
    38 x[4,8]       *              0             0             1 
    39 x[4,9]       *              0             0             1 
    40 x[4,10]      *              0             0             1 
    41 x[5,1]       *              0             0             1 
    42 x[5,2]       *              0             0             1 
    43 x[5,3]       *              0             0             1 
    44 x[5,4]       *              0             0             1 
    45 x[5,5]       *              0             0             1 
    46 x[5,6]       *              0             0             1 
    47 x[5,7]       *              0             0             1 
    48 x[5,8]       *              0             0             1 
    49 x[5,9]       *              0             0             1 
    50 x[5,10]      *              0             0             1 

Integer feasibility conditions:

KKT.PE: max.abs.err = 0.00e+000 on row 0
        max.rel.err = 0.00e+000 on row 0
        High quality

KKT.PB: max.abs.err = 0.00e+000 on row 0
        max.rel.err = 0.00e+000 on row 0
        High quality

End of output
